p cnf 6 20
-4 -1 2 6 0
-2 3 -6 -1 0
-3 -2 -1 -4 0
-6 -4 1 0
2 5 -3 -4 -6 0
-2 3 -1 0
-2 -5 -4 -3 1 6 0
1 6 -2 4 0
-3 1 0
3 -5 -2 0
-4 -2 5 0
-3 5 0
3 6 2 1 -4 0
1 -6 -5 0
4 -5 0
-3 -4 -6 0
2 -5 4 3 -1 -6 0
4 3 0
6 -1 -2 3 -4 0
3 -4 -1 0
